N = 9;
H = 5;
T = 2;

avail = array3d(1..N, 1..H, 1..T, [6, 9, 7, 2, 0, 9, 6, 0, 4, 6, 10, 10, 0, 10, 2, 0, 8, 4, 7, 3, 3, 3, 3, 10, 10, 10, 10, 0, 1, 3, 2, 7, 9, 0, 3, 3, 1, 8, 0, 3, 6, 3, 5, 10, 9, 7, 5, 1, 6, 2, 6, 10, 10, 7, 9, 5, 2, 6, 8, 8, 7, 8, 2, 5, 3, 6, 1, 4, 5, 0, 0, 7, 3, 6, 0, 4, 1, 4, 1, 5, 1, 3, 3, 6, 3, 9, 5, 5, 2, 0]);

r = array2d(1..H, 1..T, [3, 3, 3, 1, 3, 3, 1, 2, 5, 4]);
